(set-logic QF_BV)

(declare-const __ESBMC_ptr_obj_start_0 (_ BitVec 64))

(declare-const __ESBMC_ptr_obj_end_0 (_ BitVec 64))

(declare-const __ESBMC_ptr_obj_start_1 (_ BitVec 64))

(declare-const __ESBMC_ptr_obj_end_1 (_ BitVec 64))

(declare-const |smt_conv::__ESBMC_ptr_addr_range_0..start0| (_ BitVec 64))

(declare-const |smt_conv::__ESBMC_ptr_addr_range_0..end0| (_ BitVec 64))

(declare-const |smt_conv::__ESBMC_ptr_addr_range_1..start0| (_ BitVec 64))

(declare-const |smt_conv::__ESBMC_ptr_addr_range_1..end0| (_ BitVec 64))

(declare-const |smt_conv::smt_conv::collate_array_vals::3..start0| (_ BitVec 64))

(declare-const |smt_conv::smt_conv::collate_array_vals::3..end0| (_ BitVec 64))

(declare-const |smt_conv::smt_conv::collate_array_vals::4..start0| (_ BitVec 64))

(declare-const |smt_conv::smt_conv::collate_array_vals::4..end0| (_ BitVec 64))

(declare-const |smt_conv::smt_conv::collate_array_vals::7..start0| (_ BitVec 64))

(declare-const |smt_conv::smt_conv::collate_array_vals::7..end0| (_ BitVec 64))

(declare-const |c:functions_1-2.c@437@F@main@x?1!0&0#2| (_ BitVec 32))

(declare-const |nondet$symex::nondet16| (_ BitVec 32))

(declare-const |goto_symex::guard?0!0&0#1| (_ BitVec 1))

(declare-const |c:functions_1-2.c@381@F@f@z?1!0&0#1| (_ BitVec 32))

(declare-const |c:functions_1-2.c@437@F@main@x?1!0&0#3| (_ BitVec 32))

(declare-const |goto_symex::guard?0!0&0#2| (_ BitVec 1))

(declare-const |c:functions_1-2.c@381@F@f@z?2!0&0#1| (_ BitVec 32))

(declare-const |c:functions_1-2.c@437@F@main@x?1!0&0#4| (_ BitVec 32))

(declare-const |goto_symex::guard?0!0&0#3| (_ BitVec 1))

(declare-const |c:functions_1-2.c@381@F@f@z?3!0&0#1| (_ BitVec 32))

(declare-const |c:functions_1-2.c@437@F@main@x?1!0&0#5| (_ BitVec 32))

(declare-const |goto_symex::guard?0!0&0#4| (_ BitVec 1))

(declare-const |c:functions_1-2.c@381@F@f@z?4!0&0#1| (_ BitVec 32))

(declare-const |c:functions_1-2.c@437@F@main@x?1!0&0#6| (_ BitVec 32))

(declare-const |goto_symex::guard?0!0&0#5| (_ BitVec 1))

(declare-const |c:functions_1-2.c@381@F@f@z?5!0&0#1| (_ BitVec 32))

(declare-const |c:functions_1-2.c@437@F@main@x?1!0&0#7| (_ BitVec 32))

(declare-const |goto_symex::guard?0!0&0#6| (_ BitVec 1))

(declare-const |c:functions_1-2.c@381@F@f@z?6!0&0#1| (_ BitVec 32))

(declare-const |c:functions_1-2.c@437@F@main@x?1!0&0#8| (_ BitVec 32))

(declare-const |goto_symex::guard?0!0&0#7| (_ BitVec 1))

(declare-const |c:functions_1-2.c@381@F@f@z?7!0&0#1| (_ BitVec 32))

(declare-const |c:functions_1-2.c@437@F@main@x?1!0&0#9| (_ BitVec 32))

(declare-const |goto_symex::guard?0!0&0#8| (_ BitVec 1))

(declare-const |c:functions_1-2.c@381@F@f@z?8!0&0#1| (_ BitVec 32))

(declare-const |c:functions_1-2.c@437@F@main@x?1!0&0#10| (_ BitVec 32))

(declare-const |goto_symex::guard?0!0&0#9| (_ BitVec 1))

(declare-const |c:functions_1-2.c@381@F@f@z?9!0&0#1| (_ BitVec 32))

(declare-const |c:functions_1-2.c@437@F@main@x?1!0&0#11| (_ BitVec 32))

(declare-const |goto_symex::guard?0!0&0#10| (_ BitVec 1))

(declare-const |c:functions_1-2.c@381@F@f@z?10!0&0#1| (_ BitVec 32))

(declare-const |c:functions_1-2.c@437@F@main@x?1!0&0#12| (_ BitVec 32))

(declare-const |goto_symex::guard?0!0&0#11| (_ BitVec 1))

(declare-const |c:functions_1-2.c@381@F@f@z?11!0&0#1| (_ BitVec 32))

(declare-const |c:functions_1-2.c@437@F@main@x?1!0&0#13| (_ BitVec 32))

(declare-const |goto_symex::guard?0!0&0#12| (_ BitVec 1))

(declare-const |c:functions_1-2.c@381@F@f@z?12!0&0#1| (_ BitVec 32))

(declare-const |c:functions_1-2.c@437@F@main@x?1!0&0#14| (_ BitVec 32))

(declare-const |goto_symex::guard?0!0&0#13| (_ BitVec 1))

(declare-const |c:functions_1-2.c@381@F@f@z?13!0&0#1| (_ BitVec 32))

(declare-const |c:functions_1-2.c@437@F@main@x?1!0&0#15| (_ BitVec 32))

(declare-const |goto_symex::guard?0!0&0#14| (_ BitVec 1))

(declare-const |c:functions_1-2.c@381@F@f@z?14!0&0#1| (_ BitVec 32))

(declare-const |c:functions_1-2.c@437@F@main@x?1!0&0#16| (_ BitVec 32))

(declare-const |goto_symex::guard?0!0&0#15| (_ BitVec 1))

(declare-const |c:functions_1-2.c@381@F@f@z?15!0&0#1| (_ BitVec 32))

(declare-const |c:functions_1-2.c@437@F@main@x?1!0&0#17| (_ BitVec 32))

(declare-const |goto_symex::guard?0!0&0#16| (_ BitVec 1))

(declare-const |c:functions_1-2.c@381@F@f@z?16!0&0#1| (_ BitVec 32))

(declare-const |c:functions_1-2.c@437@F@main@x?1!0&0#18| (_ BitVec 32))

(declare-const |goto_symex::guard?0!0&0#17| (_ BitVec 1))

(declare-const |c:functions_1-2.c@381@F@f@z?17!0&0#1| (_ BitVec 32))

(declare-const |c:functions_1-2.c@437@F@main@x?1!0&0#19| (_ BitVec 32))

(declare-const |goto_symex::guard?0!0&0#18| (_ BitVec 1))

(declare-const |c:functions_1-2.c@381@F@f@z?18!0&0#1| (_ BitVec 32))

(declare-const |c:functions_1-2.c@437@F@main@x?1!0&0#20| (_ BitVec 32))

(declare-const |c:functions_1-2.c@437@F@main@x?1!0&0#21| (_ BitVec 32))

(declare-const |c:functions_1-2.c@437@F@main@x?1!0&0#22| (_ BitVec 32))

(declare-const |c:functions_1-2.c@437@F@main@x?1!0&0#23| (_ BitVec 32))

(declare-const |c:functions_1-2.c@437@F@main@x?1!0&0#24| (_ BitVec 32))

(declare-const |c:functions_1-2.c@437@F@main@x?1!0&0#25| (_ BitVec 32))

(declare-const |c:functions_1-2.c@437@F@main@x?1!0&0#26| (_ BitVec 32))

(declare-const |c:functions_1-2.c@437@F@main@x?1!0&0#27| (_ BitVec 32))

(declare-const |c:functions_1-2.c@437@F@main@x?1!0&0#28| (_ BitVec 32))

(declare-const |c:functions_1-2.c@437@F@main@x?1!0&0#29| (_ BitVec 32))

(declare-const |c:functions_1-2.c@437@F@main@x?1!0&0#30| (_ BitVec 32))

(declare-const |c:functions_1-2.c@437@F@main@x?1!0&0#31| (_ BitVec 32))

(declare-const |c:functions_1-2.c@437@F@main@x?1!0&0#32| (_ BitVec 32))

(declare-const |c:functions_1-2.c@437@F@main@x?1!0&0#33| (_ BitVec 32))

(declare-const |c:functions_1-2.c@437@F@main@x?1!0&0#34| (_ BitVec 32))

(declare-const |c:functions_1-2.c@437@F@main@x?1!0&0#35| (_ BitVec 32))

(declare-const |c:functions_1-2.c@437@F@main@x?1!0&0#36| (_ BitVec 32))

(declare-const |c:functions_1-2.c@437@F@main@x?1!0&0#37| (_ BitVec 32))

(declare-const |c:functions_1-2.c@437@F@main@x?1!0&0#38| (_ BitVec 32))

(declare-const |c:functions_1-2.c@284@F@__VERIFIER_assert@cond?1!0&0#1| (_ BitVec 32))

(declare-const |goto_symex::guard?0!0&0#19| (_ BitVec 1))

(declare-const |execution_statet::guard_exec?0!0| (_ BitVec 1))

(define-fun $e1 () Bool 

 (bvult |c:functions_1-2.c@437@F@main@x?1!0&0#2| #b00001111111111111111111111111111))

(define-fun $e2 () (_ BitVec 1) 

 (bvand |goto_symex::guard?0!0&0#1| |goto_symex::guard?0!0&0#2|))

(define-fun $e3 () (_ BitVec 1) 

 (bvand $e2 |goto_symex::guard?0!0&0#3|))

(define-fun $e4 () (_ BitVec 1) 

 (bvand $e3 |goto_symex::guard?0!0&0#4|))

(define-fun $e5 () (_ BitVec 1) 

 (bvand $e4 |goto_symex::guard?0!0&0#5|))

(define-fun $e6 () (_ BitVec 1) 

 (bvand $e5 |goto_symex::guard?0!0&0#6|))

(define-fun $e7 () (_ BitVec 1) 

 (bvand $e6 |goto_symex::guard?0!0&0#7|))

(define-fun $e8 () (_ BitVec 1) 

 (bvand $e7 |goto_symex::guard?0!0&0#8|))

(define-fun $e9 () (_ BitVec 1) 

 (bvand $e8 |goto_symex::guard?0!0&0#9|))

(define-fun $e10 () (_ BitVec 1) 

 (bvand $e9 |goto_symex::guard?0!0&0#10|))

(define-fun $e11 () (_ BitVec 1) 

 (bvand $e10 |goto_symex::guard?0!0&0#11|))

(define-fun $e12 () (_ BitVec 1) 

 (bvand $e11 |goto_symex::guard?0!0&0#12|))

(define-fun $e13 () (_ BitVec 1) 

 (bvand $e12 |goto_symex::guard?0!0&0#13|))

(define-fun $e14 () (_ BitVec 1) 

 (bvand $e13 |goto_symex::guard?0!0&0#14|))

(define-fun $e15 () (_ BitVec 1) 

 (bvand $e14 |goto_symex::guard?0!0&0#15|))

(define-fun $e16 () (_ BitVec 1) 

 (bvand $e15 |goto_symex::guard?0!0&0#16|))

(define-fun $e17 () (_ BitVec 1) 

 (bvand $e16 |goto_symex::guard?0!0&0#17|))

(define-fun $e18 () Bool 

 (= #b00000000000000000000000000000000 |c:functions_1-2.c@284@F@__VERIFIER_assert@cond?1!0&0#1|))

(assert 

 (= __ESBMC_ptr_obj_start_0 #b0000000000000000000000000000000000000000000000000000000000000000))

(assert 

 (= #b0000000000000000000000000000000000000000000000000000000000000000 __ESBMC_ptr_obj_end_0))

(assert 

 (= __ESBMC_ptr_obj_start_1 #b0000000000000000000000000000000000000000000000000000000000000001))

(assert 

 (= #b1111111111111111111111111111111111111111111111111111111111111111 __ESBMC_ptr_obj_end_1))

(assert 

 (= __ESBMC_ptr_obj_end_0 |smt_conv::__ESBMC_ptr_addr_range_0..end0|))

(assert 

 (= __ESBMC_ptr_obj_start_0 |smt_conv::__ESBMC_ptr_addr_range_0..start0|))

(assert 

 (= __ESBMC_ptr_obj_end_1 |smt_conv::__ESBMC_ptr_addr_range_1..end0|))

(assert 

 (= __ESBMC_ptr_obj_start_1 |smt_conv::__ESBMC_ptr_addr_range_1..start0|))

(assert 

 (= |smt_conv::smt_conv::collate_array_vals::3..end0| |smt_conv::smt_conv::collate_array_vals::4..end0|))

(assert 

 (= |smt_conv::smt_conv::collate_array_vals::3..start0| |smt_conv::smt_conv::collate_array_vals::4..start0|))

(assert 

 (= __ESBMC_ptr_obj_end_0 |smt_conv::smt_conv::collate_array_vals::7..end0|))

(assert 

 (= __ESBMC_ptr_obj_start_0 |smt_conv::smt_conv::collate_array_vals::7..start0|))

(assert 

 (= |c:functions_1-2.c@437@F@main@x?1!0&0#2| |nondet$symex::nondet16|))

(assert 

 (= 

  (ite $e1 #b1 #b0) |goto_symex::guard?0!0&0#1|))

(assert 

 (= |c:functions_1-2.c@437@F@main@x?1!0&0#2| |c:functions_1-2.c@381@F@f@z?1!0&0#1|))

(assert 

 (= |c:functions_1-2.c@437@F@main@x?1!0&0#3| 

  (bvadd |c:functions_1-2.c@381@F@f@z?1!0&0#1| #b00000000000000000000000000000010)))

(assert 

 (= |goto_symex::guard?0!0&0#2| 

  (ite 

   (bvult |c:functions_1-2.c@437@F@main@x?1!0&0#3| #b00001111111111111111111111111111) #b1 #b0)))

(assert 

 (= |c:functions_1-2.c@437@F@main@x?1!0&0#3| |c:functions_1-2.c@381@F@f@z?2!0&0#1|))

(assert 

 (= |c:functions_1-2.c@437@F@main@x?1!0&0#4| 

  (bvadd #b00000000000000000000000000000010 |c:functions_1-2.c@381@F@f@z?2!0&0#1|)))

(assert 

 (= |goto_symex::guard?0!0&0#3| 

  (ite 

   (bvult |c:functions_1-2.c@437@F@main@x?1!0&0#4| #b00001111111111111111111111111111) #b1 #b0)))

(assert 

 (= |c:functions_1-2.c@437@F@main@x?1!0&0#4| |c:functions_1-2.c@381@F@f@z?3!0&0#1|))

(assert 

 (= |c:functions_1-2.c@437@F@main@x?1!0&0#5| 

  (bvadd #b00000000000000000000000000000010 |c:functions_1-2.c@381@F@f@z?3!0&0#1|)))

(assert 

 (= |goto_symex::guard?0!0&0#4| 

  (ite 

   (bvult |c:functions_1-2.c@437@F@main@x?1!0&0#5| #b00001111111111111111111111111111) #b1 #b0)))

(assert 

 (= |c:functions_1-2.c@437@F@main@x?1!0&0#5| |c:functions_1-2.c@381@F@f@z?4!0&0#1|))

(assert 

 (= |c:functions_1-2.c@437@F@main@x?1!0&0#6| 

  (bvadd #b00000000000000000000000000000010 |c:functions_1-2.c@381@F@f@z?4!0&0#1|)))

(assert 

 (= |goto_symex::guard?0!0&0#5| 

  (ite 

   (bvult |c:functions_1-2.c@437@F@main@x?1!0&0#6| #b00001111111111111111111111111111) #b1 #b0)))

(assert 

 (= |c:functions_1-2.c@437@F@main@x?1!0&0#6| |c:functions_1-2.c@381@F@f@z?5!0&0#1|))

(assert 

 (= |c:functions_1-2.c@437@F@main@x?1!0&0#7| 

  (bvadd #b00000000000000000000000000000010 |c:functions_1-2.c@381@F@f@z?5!0&0#1|)))

(assert 

 (= |goto_symex::guard?0!0&0#6| 

  (ite 

   (bvult |c:functions_1-2.c@437@F@main@x?1!0&0#7| #b00001111111111111111111111111111) #b1 #b0)))

(assert 

 (= |c:functions_1-2.c@437@F@main@x?1!0&0#7| |c:functions_1-2.c@381@F@f@z?6!0&0#1|))

(assert 

 (= |c:functions_1-2.c@437@F@main@x?1!0&0#8| 

  (bvadd #b00000000000000000000000000000010 |c:functions_1-2.c@381@F@f@z?6!0&0#1|)))

(assert 

 (= |goto_symex::guard?0!0&0#7| 

  (ite 

   (bvult |c:functions_1-2.c@437@F@main@x?1!0&0#8| #b00001111111111111111111111111111) #b1 #b0)))

(assert 

 (= |c:functions_1-2.c@437@F@main@x?1!0&0#8| |c:functions_1-2.c@381@F@f@z?7!0&0#1|))

(assert 

 (= |c:functions_1-2.c@437@F@main@x?1!0&0#9| 

  (bvadd #b00000000000000000000000000000010 |c:functions_1-2.c@381@F@f@z?7!0&0#1|)))

(assert 

 (= |goto_symex::guard?0!0&0#8| 

  (ite 

   (bvult |c:functions_1-2.c@437@F@main@x?1!0&0#9| #b00001111111111111111111111111111) #b1 #b0)))

(assert 

 (= |c:functions_1-2.c@437@F@main@x?1!0&0#9| |c:functions_1-2.c@381@F@f@z?8!0&0#1|))

(assert 

 (= |c:functions_1-2.c@437@F@main@x?1!0&0#10| 

  (bvadd #b00000000000000000000000000000010 |c:functions_1-2.c@381@F@f@z?8!0&0#1|)))

(assert 

 (= |goto_symex::guard?0!0&0#9| 

  (ite 

   (bvult |c:functions_1-2.c@437@F@main@x?1!0&0#10| #b00001111111111111111111111111111) #b1 #b0)))

(assert 

 (= |c:functions_1-2.c@437@F@main@x?1!0&0#10| |c:functions_1-2.c@381@F@f@z?9!0&0#1|))

(assert 

 (= |c:functions_1-2.c@437@F@main@x?1!0&0#11| 

  (bvadd #b00000000000000000000000000000010 |c:functions_1-2.c@381@F@f@z?9!0&0#1|)))

(assert 

 (= |goto_symex::guard?0!0&0#10| 

  (ite 

   (bvult |c:functions_1-2.c@437@F@main@x?1!0&0#11| #b00001111111111111111111111111111) #b1 #b0)))

(assert 

 (= |c:functions_1-2.c@437@F@main@x?1!0&0#11| |c:functions_1-2.c@381@F@f@z?10!0&0#1|))

(assert 

 (= |c:functions_1-2.c@437@F@main@x?1!0&0#12| 

  (bvadd #b00000000000000000000000000000010 |c:functions_1-2.c@381@F@f@z?10!0&0#1|)))

(assert 

 (= |goto_symex::guard?0!0&0#11| 

  (ite 

   (bvult |c:functions_1-2.c@437@F@main@x?1!0&0#12| #b00001111111111111111111111111111) #b1 #b0)))

(assert 

 (= |c:functions_1-2.c@437@F@main@x?1!0&0#12| |c:functions_1-2.c@381@F@f@z?11!0&0#1|))

(assert 

 (= |c:functions_1-2.c@437@F@main@x?1!0&0#13| 

  (bvadd #b00000000000000000000000000000010 |c:functions_1-2.c@381@F@f@z?11!0&0#1|)))

(assert 

 (= |goto_symex::guard?0!0&0#12| 

  (ite 

   (bvult |c:functions_1-2.c@437@F@main@x?1!0&0#13| #b00001111111111111111111111111111) #b1 #b0)))

(assert 

 (= |c:functions_1-2.c@437@F@main@x?1!0&0#13| |c:functions_1-2.c@381@F@f@z?12!0&0#1|))

(assert 

 (= |c:functions_1-2.c@437@F@main@x?1!0&0#14| 

  (bvadd #b00000000000000000000000000000010 |c:functions_1-2.c@381@F@f@z?12!0&0#1|)))

(assert 

 (= |goto_symex::guard?0!0&0#13| 

  (ite 

   (bvult |c:functions_1-2.c@437@F@main@x?1!0&0#14| #b00001111111111111111111111111111) #b1 #b0)))

(assert 

 (= |c:functions_1-2.c@437@F@main@x?1!0&0#14| |c:functions_1-2.c@381@F@f@z?13!0&0#1|))

(assert 

 (= |c:functions_1-2.c@437@F@main@x?1!0&0#15| 

  (bvadd #b00000000000000000000000000000010 |c:functions_1-2.c@381@F@f@z?13!0&0#1|)))

(assert 

 (= |goto_symex::guard?0!0&0#14| 

  (ite 

   (bvult |c:functions_1-2.c@437@F@main@x?1!0&0#15| #b00001111111111111111111111111111) #b1 #b0)))

(assert 

 (= |c:functions_1-2.c@437@F@main@x?1!0&0#15| |c:functions_1-2.c@381@F@f@z?14!0&0#1|))

(assert 

 (= |c:functions_1-2.c@437@F@main@x?1!0&0#16| 

  (bvadd #b00000000000000000000000000000010 |c:functions_1-2.c@381@F@f@z?14!0&0#1|)))

(assert 

 (= |goto_symex::guard?0!0&0#15| 

  (ite 

   (bvult |c:functions_1-2.c@437@F@main@x?1!0&0#16| #b00001111111111111111111111111111) #b1 #b0)))

(assert 

 (= |c:functions_1-2.c@437@F@main@x?1!0&0#16| |c:functions_1-2.c@381@F@f@z?15!0&0#1|))

(assert 

 (= |c:functions_1-2.c@437@F@main@x?1!0&0#17| 

  (bvadd #b00000000000000000000000000000010 |c:functions_1-2.c@381@F@f@z?15!0&0#1|)))

(assert 

 (= |goto_symex::guard?0!0&0#16| 

  (ite 

   (bvult |c:functions_1-2.c@437@F@main@x?1!0&0#17| #b00001111111111111111111111111111) #b1 #b0)))

(assert 

 (= |c:functions_1-2.c@437@F@main@x?1!0&0#17| |c:functions_1-2.c@381@F@f@z?16!0&0#1|))

(assert 

 (= |c:functions_1-2.c@437@F@main@x?1!0&0#18| 

  (bvadd #b00000000000000000000000000000010 |c:functions_1-2.c@381@F@f@z?16!0&0#1|)))

(assert 

 (= |goto_symex::guard?0!0&0#17| 

  (ite 

   (bvult |c:functions_1-2.c@437@F@main@x?1!0&0#18| #b00001111111111111111111111111111) #b1 #b0)))

(assert 

 (= |c:functions_1-2.c@437@F@main@x?1!0&0#18| |c:functions_1-2.c@381@F@f@z?17!0&0#1|))

(assert 

 (= |c:functions_1-2.c@437@F@main@x?1!0&0#19| 

  (bvadd #b00000000000000000000000000000010 |c:functions_1-2.c@381@F@f@z?17!0&0#1|)))

(assert 

 (= |goto_symex::guard?0!0&0#18| 

  (ite 

   (bvult |c:functions_1-2.c@437@F@main@x?1!0&0#19| #b00001111111111111111111111111111) #b1 #b0)))

(assert 

 (= |c:functions_1-2.c@437@F@main@x?1!0&0#19| |c:functions_1-2.c@381@F@f@z?18!0&0#1|))

(assert 

 (= |c:functions_1-2.c@437@F@main@x?1!0&0#20| 

  (bvadd #b00000000000000000000000000000010 |c:functions_1-2.c@381@F@f@z?18!0&0#1|)))

(assert 

 (= |c:functions_1-2.c@437@F@main@x?1!0&0#21| 

  (ite 

   (= #b1 |goto_symex::guard?0!0&0#18|) |c:functions_1-2.c@437@F@main@x?1!0&0#20| |c:functions_1-2.c@437@F@main@x?1!0&0#19|)))

(assert 

 (= |c:functions_1-2.c@437@F@main@x?1!0&0#22| 

  (ite 

   (= #b1 |goto_symex::guard?0!0&0#17|) |c:functions_1-2.c@437@F@main@x?1!0&0#21| |c:functions_1-2.c@437@F@main@x?1!0&0#18|)))

(assert 

 (= |c:functions_1-2.c@437@F@main@x?1!0&0#23| 

  (ite 

   (= #b1 |goto_symex::guard?0!0&0#16|) |c:functions_1-2.c@437@F@main@x?1!0&0#22| |c:functions_1-2.c@437@F@main@x?1!0&0#17|)))

(assert 

 (= |c:functions_1-2.c@437@F@main@x?1!0&0#24| 

  (ite 

   (= #b1 |goto_symex::guard?0!0&0#15|) |c:functions_1-2.c@437@F@main@x?1!0&0#23| |c:functions_1-2.c@437@F@main@x?1!0&0#16|)))

(assert 

 (= |c:functions_1-2.c@437@F@main@x?1!0&0#25| 

  (ite 

   (= #b1 |goto_symex::guard?0!0&0#14|) |c:functions_1-2.c@437@F@main@x?1!0&0#24| |c:functions_1-2.c@437@F@main@x?1!0&0#15|)))

(assert 

 (= |c:functions_1-2.c@437@F@main@x?1!0&0#26| 

  (ite 

   (= #b1 |goto_symex::guard?0!0&0#13|) |c:functions_1-2.c@437@F@main@x?1!0&0#25| |c:functions_1-2.c@437@F@main@x?1!0&0#14|)))

(assert 

 (= |c:functions_1-2.c@437@F@main@x?1!0&0#27| 

  (ite 

   (= #b1 |goto_symex::guard?0!0&0#12|) |c:functions_1-2.c@437@F@main@x?1!0&0#26| |c:functions_1-2.c@437@F@main@x?1!0&0#13|)))

(assert 

 (= |c:functions_1-2.c@437@F@main@x?1!0&0#28| 

  (ite 

   (= #b1 |goto_symex::guard?0!0&0#11|) |c:functions_1-2.c@437@F@main@x?1!0&0#27| |c:functions_1-2.c@437@F@main@x?1!0&0#12|)))

(assert 

 (= |c:functions_1-2.c@437@F@main@x?1!0&0#29| 

  (ite 

   (= #b1 |goto_symex::guard?0!0&0#10|) |c:functions_1-2.c@437@F@main@x?1!0&0#28| |c:functions_1-2.c@437@F@main@x?1!0&0#11|)))

(assert 

 (= |c:functions_1-2.c@437@F@main@x?1!0&0#30| 

  (ite 

   (= #b1 |goto_symex::guard?0!0&0#9|) |c:functions_1-2.c@437@F@main@x?1!0&0#29| |c:functions_1-2.c@437@F@main@x?1!0&0#10|)))

(assert 

 (= |c:functions_1-2.c@437@F@main@x?1!0&0#31| 

  (ite 

   (= #b1 |goto_symex::guard?0!0&0#8|) |c:functions_1-2.c@437@F@main@x?1!0&0#30| |c:functions_1-2.c@437@F@main@x?1!0&0#9|)))

(assert 

 (= |c:functions_1-2.c@437@F@main@x?1!0&0#32| 

  (ite 

   (= #b1 |goto_symex::guard?0!0&0#7|) |c:functions_1-2.c@437@F@main@x?1!0&0#31| |c:functions_1-2.c@437@F@main@x?1!0&0#8|)))

(assert 

 (= |c:functions_1-2.c@437@F@main@x?1!0&0#33| 

  (ite 

   (= #b1 |goto_symex::guard?0!0&0#6|) |c:functions_1-2.c@437@F@main@x?1!0&0#32| |c:functions_1-2.c@437@F@main@x?1!0&0#7|)))

(assert 

 (= |c:functions_1-2.c@437@F@main@x?1!0&0#34| 

  (ite 

   (= #b1 |goto_symex::guard?0!0&0#5|) |c:functions_1-2.c@437@F@main@x?1!0&0#33| |c:functions_1-2.c@437@F@main@x?1!0&0#6|)))

(assert 

 (= |c:functions_1-2.c@437@F@main@x?1!0&0#35| 

  (ite 

   (= #b1 |goto_symex::guard?0!0&0#4|) |c:functions_1-2.c@437@F@main@x?1!0&0#34| |c:functions_1-2.c@437@F@main@x?1!0&0#5|)))

(assert 

 (= |c:functions_1-2.c@437@F@main@x?1!0&0#36| 

  (ite 

   (= #b1 |goto_symex::guard?0!0&0#3|) |c:functions_1-2.c@437@F@main@x?1!0&0#35| |c:functions_1-2.c@437@F@main@x?1!0&0#4|)))

(assert 

 (= |c:functions_1-2.c@437@F@main@x?1!0&0#37| 

  (ite 

   (= #b1 |goto_symex::guard?0!0&0#2|) |c:functions_1-2.c@437@F@main@x?1!0&0#36| |c:functions_1-2.c@437@F@main@x?1!0&0#3|)))

(assert 

 (= |c:functions_1-2.c@437@F@main@x?1!0&0#38| 

  (ite 

   (= #b1 |goto_symex::guard?0!0&0#1|) |c:functions_1-2.c@437@F@main@x?1!0&0#37| |c:functions_1-2.c@437@F@main@x?1!0&0#2|)))

(assert 

 (= |c:functions_1-2.c@284@F@__VERIFIER_assert@cond?1!0&0#1| 

  (bvurem |c:functions_1-2.c@437@F@main@x?1!0&0#38| #b00000000000000000000000000000010)))

(assert 

 (= |goto_symex::guard?0!0&0#19| 

  (ite $e18 #b1 #b0)))

(assert (= 

 (bvnot 

  (bvand |goto_symex::guard?0!0&0#19| 

   (bvnot 

    (ite $e18 #b1 #b0)))) #b1))

(assert (= 

 (bvnot 

  (bvand 

   (bvand $e17 |goto_symex::guard?0!0&0#18|) 

   (ite 

    (bvult #b00001111111111111111111111111110 |c:functions_1-2.c@437@F@main@x?1!0&0#19|) #b1 #b0))) #b1))

(assert (= 

 (bvnot 

  (bvand $e17 

   (ite 

    (bvult #b00001111111111111111111111111110 |c:functions_1-2.c@437@F@main@x?1!0&0#18|) #b1 #b0))) #b1))

(assert (= 

 (bvnot 

  (bvand $e16 

   (ite 

    (bvult #b00001111111111111111111111111110 |c:functions_1-2.c@437@F@main@x?1!0&0#17|) #b1 #b0))) #b1))

(assert (= 

 (bvnot 

  (bvand $e15 

   (ite 

    (bvult #b00001111111111111111111111111110 |c:functions_1-2.c@437@F@main@x?1!0&0#16|) #b1 #b0))) #b1))

(assert (= 

 (bvnot 

  (bvand $e14 

   (ite 

    (bvult #b00001111111111111111111111111110 |c:functions_1-2.c@437@F@main@x?1!0&0#15|) #b1 #b0))) #b1))

(assert (= 

 (bvnot 

  (bvand $e13 

   (ite 

    (bvult #b00001111111111111111111111111110 |c:functions_1-2.c@437@F@main@x?1!0&0#14|) #b1 #b0))) #b1))

(assert (= 

 (bvnot 

  (bvand $e12 

   (ite 

    (bvult #b00001111111111111111111111111110 |c:functions_1-2.c@437@F@main@x?1!0&0#13|) #b1 #b0))) #b1))

(assert (= 

 (bvnot 

  (bvand $e11 

   (ite 

    (bvult #b00001111111111111111111111111110 |c:functions_1-2.c@437@F@main@x?1!0&0#12|) #b1 #b0))) #b1))

(assert (= 

 (bvnot 

  (bvand $e10 

   (ite 

    (bvult #b00001111111111111111111111111110 |c:functions_1-2.c@437@F@main@x?1!0&0#11|) #b1 #b0))) #b1))

(assert (= 

 (bvnot 

  (bvand $e9 

   (ite 

    (bvult #b00001111111111111111111111111110 |c:functions_1-2.c@437@F@main@x?1!0&0#10|) #b1 #b0))) #b1))

(assert (= 

 (bvnot 

  (bvand $e8 

   (ite 

    (bvult #b00001111111111111111111111111110 |c:functions_1-2.c@437@F@main@x?1!0&0#9|) #b1 #b0))) #b1))

(assert (= 

 (bvnot 

  (bvand $e7 

   (ite 

    (bvult #b00001111111111111111111111111110 |c:functions_1-2.c@437@F@main@x?1!0&0#8|) #b1 #b0))) #b1))

(assert (= 

 (bvnot 

  (bvand $e6 

   (ite 

    (bvult #b00001111111111111111111111111110 |c:functions_1-2.c@437@F@main@x?1!0&0#7|) #b1 #b0))) #b1))

(assert (= 

 (bvnot 

  (bvand $e5 

   (ite 

    (bvult #b00001111111111111111111111111110 |c:functions_1-2.c@437@F@main@x?1!0&0#6|) #b1 #b0))) #b1))

(assert (= 

 (bvnot 

  (bvand $e4 

   (ite 

    (bvult #b00001111111111111111111111111110 |c:functions_1-2.c@437@F@main@x?1!0&0#5|) #b1 #b0))) #b1))

(assert (= 

 (bvnot 

  (bvand $e3 

   (ite 

    (bvult #b00001111111111111111111111111110 |c:functions_1-2.c@437@F@main@x?1!0&0#4|) #b1 #b0))) #b1))

(assert (= 

 (bvnot 

  (bvand $e2 

   (ite 

    (bvult #b00001111111111111111111111111110 |c:functions_1-2.c@437@F@main@x?1!0&0#3|) #b1 #b0))) #b1))

(assert (= 

 (bvnot 

  (bvand |goto_symex::guard?0!0&0#1| 

   (ite 

    (bvult #b00001111111111111111111111111110 |c:functions_1-2.c@437@F@main@x?1!0&0#2|) #b1 #b0))) #b1))

(assert $e1)

(assert (= |execution_statet::guard_exec?0!0| #b1))

(assert (= |goto_symex::guard?0!0&0#19| #b1))

(check-sat)

(exit)
